NAME: template9.png
TYPE: TSP
DIMENSION: 26
EDGE_WEIGHT_TYPE: EUC_2D
NODE_COORD_SECTION
1 391.5 150.0
2 425.5 150.0
3 594.5 150.0
4 323.5 184.0
5 357.5 184.0
6 628.5 184.0
7 18.5 217.0
8 289.5 217.0
9 255.5 218.0
10 628.5 218.0
11 52.5 251.0
12 86.5 251.0
13 120.5 251.0
14 425.5 251.0
15 425.5 285.0
16 662.5 285.0
17 696.5 285.0
18 730.5 285.0
19 764.5 285.0
20 459.5 319.0
21 594.5 319.0
22 628.5 319.0
23 798.5 319.0
24 493.5 353.0
25 527.5 353.0
26 560.5 353.0
EOF
